n_machines = 5;
n_resources = 10;
n_jobs = 54;
horizon = 284;
LB = 56;
n_jobs_per_resource = [3, 2, 9, 2, 5, 8, 5, 8, 5, 7];
duration = [2, 6, 7, 9, 6, 2, 5, 5, 6, 3, 5, 7, 5, 2, 9, 6, 6, 3, 9, 1, 4, 5, 3, 5, 5, 9, 5, 3, 2, 5, 8, 6, 8, 8, 1, 2, 3, 3, 3, 7, 3, 3, 5, 9, 9, 9, 6, 2, 7, 8, 9, 8, 1, 6]